c colouring generated by benchmark framework
p edge 87 406
v 1 4
v 2 2
v 3 10
v 4 10
v 5 0
v 6 4
v 7 0
v 8 0
v 9 3
v 10 3
v 11 0
v 12 0
v 13 0
v 14 1
v 15 7
v 16 7
v 17 10
v 18 7
v 19 1
v 20 5
v 21 2
v 22 0
v 23 5
v 24 3
v 25 8
v 26 0
v 27 10
v 28 10
v 29 8
v 30 0
v 31 3
v 32 8
v 33 1
v 34 4
v 35 3
v 36 5
v 37 0
v 38 0
v 39 7
v 40 4
v 41 0
v 42 5
v 43 8
v 44 8
v 45 2
v 46 3
v 47 0
v 48 3
v 49 2
v 50 3
v 51 0
v 52 3
v 53 3
v 54 0
v 55 5
v 56 0
v 57 0
v 58 5
v 59 8
v 60 3
v 61 3
v 62 10
v 63 2
v 64 0
v 65 10
v 66 0
v 67 4
v 68 4
v 69 7
v 70 0
v 71 9
v 72 0
v 73 4
v 74 9
v 75 10
v 76 5
v 77 1
v 78 9
v 79 8
v 80 1
v 81 9
v 82 4
v 83 6
v 84 8
v 85 9
v 86 1
v 87 7
